NAME : in_house_8_17
TYPE : TSP
DIMENSION : 8
EDGE_WEIGHT_TYPE : EXPLICIT
EDGE_WEIGHT_FORMAT : UPPER_ROW
COMMENT : INVERSION_SHIFT=1
EDGE_WEIGHT_SECTION
6
36
19
10
14
61
6
10
15
19
29
3
31
5
7
63
10
24
26
60
59
44
29
18
5
39
32
34
